NAME : GeneratedInstance
TYPE : TSP
DIMENSION : 15
EDGE_WEIGHT_TYPE : EUC_2D
NODE_COORD_SECTION
1 46.970935 93.441381
2 16.861900 79.616088
3 76.968036 12.749575
4 36.030752 77.761159
5 25.861787 67.292761
6 80.208266 54.029120
7 81.795648 29.400712
8 89.160232 8.170977
9 60.422529 18.972985
10 0.271103 53.307753
11 13.028607 35.589787
12 17.483990 28.869883
13 73.815688 85.356362
14 15.006196 65.183156
15 3.421394 29.461681
EOF
